NODE_COUNT_SECTION
121
END_SECTION
VEHICLE_CAP_SECTION
200
END_SECTION
NODE_COORD_SECTION
0 10 45
1 25 1
2 25 3
3 31 5
4 32 5
5 31 7
6 32 9
7 34 9
8 46 9
9 35 7
10 34 6
11 35 5
12 47 6
13 40 5
14 39 3
15 36 3
16 73 6
17 73 8
18 24 36
19 76 6
20 76 10
21 76 13
22 78 3
23 78 9
24 79 3
25 79 5
26 79 11
27 82 3
28 82 7
29 90 15
30 84 3
31 84 5
32 84 9
33 85 1
34 87 5
35 85 8
36 87 7
37 86 41
38 86 44
39 86 46
40 85 55
41 89 43
42 89 46
43 89 52
44 92 42
45 92 52
46 94 42
47 94 44
48 94 48
49 96 42
50 99 46
51 99 50
52 83 80
53 83 83
54 85 81
55 85 85
56 85 89
57 87 80
58 87 86
59 90 77
60 90 88
61 93 82
62 93 84
63 93 89
64 94 86
65 95 80
66 99 89
67 37 83
68 50 80
69 35 85
70 35 87
71 44 86
72 46 89
73 46 83
74 46 87
75 46 89
76 48 83
77 50 85
78 50 88
79 54 86
80 54 90
81 10 35
82 10 40
83 18 30
84 17 35
85 16 38
86 14 40
87 15 42
88 11 42
89 18 40
90 21 39
91 20 40
92 18 41
93 20 44
94 22 44
95 16 45
96 20 45
97 25 45
98 30 55
99 20 50
100 22 51
101 18 49
102 16 48
103 20 55
104 18 53
105 14 50
106 15 51
107 16 54
108 28 33
109 33 38
110 30 50
111 13 40
112 15 36
113 18 31
114 25 37
115 30 46
116 25 52
117 16 33
118 25 35
119 5 40
120 5 50
END_SECTION
NODE_DEMAND_SECTION
0 0
1 25
2 7
3 13
4 6
5 14
6 5
7 11
8 19
9 5
10 15
11 15
12 17
13 13
14 12
15 18
16 13
17 18
18 12
19 17
20 4
21 7
22 12
23 13
24 8
25 16
26 15
27 6
28 5
29 9
30 11
31 10
32 3
33 7
34 2
35 4
36 4
37 18
38 14
39 12
40 17
41 20
42 14
43 16
44 10
45 9
46 11
47 7
48 13
49 5
50 4
51 21
52 13
53 11
54 12
55 14
56 10
57 8
58 16
59 19
60 5
61 17
62 7
63 16
64 14
65 17
66 13
67 17
68 13
69 14
70 16
71 7
72 13
73 9
74 11
75 35
76 5
77 28
78 7
79 3
80 10
81 7
82 12
83 11
84 10
85 8
86 11
87 21
88 4
89 15
90 16
91 4
92 16
93 7
94 10
95 9
96 11
97 17
98 12
99 11
100 7
101 9
102 11
103 12
104 7
105 8
106 6
107 5
108 12
109 13
110 7
111 7
112 8
113 11
114 13
115 11
116 10
117 7
118 4
119 20
120 13
END_SECTION
NODE_BASE_SECTION
0
END_SECTION
END_FILE
